FourierSAT_Github_AIJ/benchmarks/MAXSAT_benchmarks/1/dimacs-mod/brock800_2.clq.cnf
c FILE:  brock800_2.b
c
c Graph Generator
c
c By: Mark Brockington (brock@cs.ualberta.ca)
c and Joe Culberson (joe@cs.ualberta.ca)
c
c Graph Size:800, Clique Size: 24
c Seed:1, Edge Density:  0.65000
c Depth 2 Hiding
c
c Clique Elements are:
c 445 258 155 383 414 496 271 694 649 348 
c 504 792 323 695 12 109 160 84 214 580 
c 460 55 417 130 
c
c Estimated Size of Uncompressed File:   2.0MB
c
p cnf 40 1026
1 4 0
-1 -4 0
1 5 0
-1 -5 0
1 7 0
-1 -7 0
1 8 0
-1 -8 0
1 12 0
-1 -12 0
1 15 0
-1 -15 0
1 18 0
-1 -18 0
1 21 0
-1 -21 0
1 22 0
-1 -22 0
1 23 0
-1 -23 0
1 25 0
-1 -25 0
1 26 0
-1 -26 0
1 27 0
-1 -27 0
1 28 0
-1 -28 0
1 30 0
-1 -30 0
1 31 0
-1 -31 0
1 33 0
-1 -33 0
1 38 0
-1 -38 0
1 39 0
-1 -39 0
1 40 0
-1 -40 0
2 4 0
-2 -4 0
2 5 0
-2 -5 0
2 6 0
-2 -6 0
2 8 0
-2 -8 0
2 9 0
-2 -9 0
2 12 0
-2 -12 0
2 13 0
-2 -13 0
2 14 0
-2 -14 0
2 15 0
-2 -15 0
2 16 0
-2 -16 0
2 17 0
-2 -17 0
2 18 0
-2 -18 0
2 19 0
-2 -19 0
2 20 0
-2 -20 0
2 21 0
-2 -21 0
2 22 0
-2 -22 0
2 23 0
-2 -23 0
2 24 0
-2 -24 0
2 25 0
-2 -25 0
2 26 0
-2 -26 0
2 29 0
-2 -29 0
2 30 0
-2 -30 0
2 31 0
-2 -31 0
2 32 0
-2 -32 0
2 33 0
-2 -33 0
2 34 0
-2 -34 0
2 37 0
-2 -37 0
2 38 0
-2 -38 0
2 39 0
-2 -39 0
2 40 0
-2 -40 0
3 5 0
-3 -5 0
3 7 0
-3 -7 0
3 10 0
-3 -10 0
3 11 0
-3 -11 0
3 12 0
-3 -12 0
3 13 0
-3 -13 0
3 14 0
-3 -14 0
3 15 0
-3 -15 0
3 16 0
-3 -16 0
3 17 0
-3 -17 0
3 20 0
-3 -20 0
3 21 0
-3 -21 0
3 22 0
-3 -22 0
3 24 0
-3 -24 0
3 25 0
-3 -25 0
3 26 0
-3 -26 0
3 27 0
-3 -27 0
3 29 0
-3 -29 0
3 30 0
-3 -30 0
3 31 0
-3 -31 0
3 32 0
-3 -32 0
3 33 0
-3 -33 0
3 34 0
-3 -34 0
3 35 0
-3 -35 0
3 39 0
-3 -39 0
4 5 0
-4 -5 0
4 6 0
-4 -6 0
4 7 0
-4 -7 0
4 8 0
-4 -8 0
4 9 0
-4 -9 0
4 10 0
-4 -10 0
4 12 0
-4 -12 0
4 13 0
-4 -13 0
4 16 0
-4 -16 0
4 18 0
-4 -18 0
4 19 0
-4 -19 0
4 20 0
-4 -20 0
4 22 0
-4 -22 0
4 23 0
-4 -23 0
4 24 0
-4 -24 0
4 25 0
-4 -25 0
4 28 0
-4 -28 0
4 29 0
-4 -29 0
4 30 0
-4 -30 0
4 31 0
-4 -31 0
4 33 0
-4 -33 0
4 35 0
-4 -35 0
4 36 0
-4 -36 0
4 37 0
-4 -37 0
4 40 0
-4 -40 0
5 6 0
-5 -6 0
5 7 0
-5 -7 0
5 8 0
-5 -8 0
5 9 0
-5 -9 0
5 10 0
-5 -10 0
5 11 0
-5 -11 0
5 14 0
-5 -14 0
5 16 0
-5 -16 0
5 17 0
-5 -17 0
5 18 0
-5 -18 0
5 21 0
-5 -21 0
5 22 0
-5 -22 0
5 23 0
-5 -23 0
5 25 0
-5 -25 0
5 26 0
-5 -26 0
5 27 0
-5 -27 0
5 28 0
-5 -28 0
5 29 0
-5 -29 0
5 31 0
-5 -31 0
5 33 0
-5 -33 0
5 36 0
-5 -36 0
5 38 0
-5 -38 0
5 39 0
-5 -39 0
6 7 0
-6 -7 0
6 8 0
-6 -8 0
6 9 0
-6 -9 0
6 10 0
-6 -10 0
6 12 0
-6 -12 0
6 13 0
-6 -13 0
6 14 0
-6 -14 0
6 17 0
-6 -17 0
6 20 0
-6 -20 0
6 22 0
-6 -22 0
6 23 0
-6 -23 0
6 24 0
-6 -24 0
6 25 0
-6 -25 0
6 26 0
-6 -26 0
6 27 0
-6 -27 0
6 31 0
-6 -31 0
6 33 0
-6 -33 0
6 35 0
-6 -35 0
6 36 0
-6 -36 0
6 37 0
-6 -37 0
6 38 0
-6 -38 0
6 39 0
-6 -39 0
6 40 0
-6 -40 0
7 8 0
-7 -8 0
7 10 0
-7 -10 0
7 11 0
-7 -11 0
7 13 0
-7 -13 0
7 14 0
-7 -14 0
7 16 0
-7 -16 0
7 17 0
-7 -17 0
7 19 0
-7 -19 0
7 23 0
-7 -23 0
7 25 0
-7 -25 0
7 28 0
-7 -28 0
7 29 0
-7 -29 0
7 30 0
-7 -30 0
7 31 0
-7 -31 0
7 32 0
-7 -32 0
7 34 0
-7 -34 0
7 36 0
-7 -36 0
7 37 0
-7 -37 0
7 38 0
-7 -38 0
7 39 0
-7 -39 0
8 10 0
-8 -10 0
8 11 0
-8 -11 0
8 12 0
-8 -12 0
8 13 0
-8 -13 0
8 14 0
-8 -14 0
8 19 0
-8 -19 0
8 23 0
-8 -23 0
8 25 0
-8 -25 0
8 26 0
-8 -26 0
8 27 0
-8 -27 0
8 28 0
-8 -28 0
8 29 0
-8 -29 0
8 30 0
-8 -30 0
8 31 0
-8 -31 0
8 32 0
-8 -32 0
8 34 0
-8 -34 0
8 35 0
-8 -35 0
8 36 0
-8 -36 0
8 40 0
-8 -40 0
9 13 0
-9 -13 0
9 14 0
-9 -14 0
9 15 0
-9 -15 0
9 16 0
-9 -16 0
9 18 0
-9 -18 0
9 19 0
-9 -19 0
9 21 0
-9 -21 0
9 22 0
-9 -22 0
9 24 0
-9 -24 0
9 25 0
-9 -25 0
9 26 0
-9 -26 0
9 29 0
-9 -29 0
9 30 0
-9 -30 0
9 33 0
-9 -33 0
9 35 0
-9 -35 0
9 36 0
-9 -36 0
9 37 0
-9 -37 0
9 38 0
-9 -38 0
9 39 0
-9 -39 0
9 40 0
-9 -40 0
10 11 0
-10 -11 0
10 12 0
-10 -12 0
10 13 0
-10 -13 0
10 14 0
-10 -14 0
10 15 0
-10 -15 0
10 16 0
-10 -16 0
10 17 0
-10 -17 0
10 18 0
-10 -18 0
10 22 0
-10 -22 0
10 23 0
-10 -23 0
10 24 0
-10 -24 0
10 25 0
-10 -25 0
10 26 0
-10 -26 0
10 27 0
-10 -27 0
10 29 0
-10 -29 0
10 31 0
-10 -31 0
10 33 0
-10 -33 0
10 34 0
-10 -34 0
10 35 0
-10 -35 0
10 37 0
-10 -37 0
10 38 0
-10 -38 0
10 39 0
-10 -39 0
11 12 0
-11 -12 0
11 14 0
-11 -14 0
11 15 0
-11 -15 0
11 17 0
-11 -17 0
11 21 0
-11 -21 0
11 22 0
-11 -22 0
11 23 0
-11 -23 0
11 24 0
-11 -24 0
11 25 0
-11 -25 0
11 26 0
-11 -26 0
11 27 0
-11 -27 0
11 30 0
-11 -30 0
11 32 0
-11 -32 0
11 33 0
-11 -33 0
11 34 0
-11 -34 0
11 35 0
-11 -35 0
11 37 0
-11 -37 0
11 39 0
-11 -39 0
11 40 0
-11 -40 0
12 13 0
-12 -13 0
12 14 0
-12 -14 0
12 17 0
-12 -17 0
12 18 0
-12 -18 0
12 19 0
-12 -19 0
12 20 0
-12 -20 0
12 21 0
-12 -21 0
12 22 0
-12 -22 0
12 23 0
-12 -23 0
12 24 0
-12 -24 0
12 26 0
-12 -26 0
12 27 0
-12 -27 0
12 28 0
-12 -28 0
12 29 0
-12 -29 0
12 30 0
-12 -30 0
12 32 0
-12 -32 0
12 33 0
-12 -33 0
12 35 0
-12 -35 0
12 37 0
-12 -37 0
12 38 0
-12 -38 0
12 40 0
-12 -40 0
13 14 0
-13 -14 0
13 15 0
-13 -15 0
13 16 0
-13 -16 0
13 17 0
-13 -17 0
13 18 0
-13 -18 0
13 20 0
-13 -20 0
13 21 0
-13 -21 0
13 22 0
-13 -22 0
13 23 0
-13 -23 0
13 24 0
-13 -24 0
13 25 0
-13 -25 0
13 26 0
-13 -26 0
13 27 0
-13 -27 0
13 29 0
-13 -29 0
13 30 0
-13 -30 0
13 31 0
-13 -31 0
13 33 0
-13 -33 0
13 34 0
-13 -34 0
13 35 0
-13 -35 0
13 37 0
-13 -37 0
13 40 0
-13 -40 0
14 15 0
-14 -15 0
14 16 0
-14 -16 0
14 20 0
-14 -20 0
14 23 0
-14 -23 0
14 24 0
-14 -24 0
14 26 0
-14 -26 0
14 29 0
-14 -29 0
14 30 0
-14 -30 0
14 31 0
-14 -31 0
14 32 0
-14 -32 0
14 34 0
-14 -34 0
14 37 0
-14 -37 0
14 38 0
-14 -38 0
14 39 0
-14 -39 0
14 40 0
-14 -40 0
15 17 0
-15 -17 0
15 18 0
-15 -18 0
15 19 0
-15 -19 0
15 21 0
-15 -21 0
15 22 0
-15 -22 0
15 23 0
-15 -23 0
15 24 0
-15 -24 0
15 27 0
-15 -27 0
15 28 0
-15 -28 0
15 29 0
-15 -29 0
15 32 0
-15 -32 0
15 33 0
-15 -33 0
15 36 0
-15 -36 0
15 39 0
-15 -39 0
15 40 0
-15 -40 0
16 18 0
-16 -18 0
16 19 0
-16 -19 0
16 20 0
-16 -20 0
16 21 0
-16 -21 0
16 23 0
-16 -23 0
16 25 0
-16 -25 0
16 26 0
-16 -26 0
16 27 0
-16 -27 0
16 28 0
-16 -28 0
16 29 0
-16 -29 0
16 30 0
-16 -30 0
16 31 0
-16 -31 0
16 32 0
-16 -32 0
16 33 0
-16 -33 0
16 34 0
-16 -34 0
17 18 0
-17 -18 0
17 19 0
-17 -19 0
17 21 0
-17 -21 0
17 22 0
-17 -22 0
17 24 0
-17 -24 0
17 26 0
-17 -26 0
17 27 0
-17 -27 0
17 28 0
-17 -28 0
17 29 0
-17 -29 0
17 31 0
-17 -31 0
17 32 0
-17 -32 0
17 33 0
-17 -33 0
17 34 0
-17 -34 0
17 36 0
-17 -36 0
17 37 0
-17 -37 0
17 38 0
-17 -38 0
17 39 0
-17 -39 0
17 40 0
-17 -40 0
18 20 0
-18 -20 0
18 22 0
-18 -22 0
18 24 0
-18 -24 0
18 25 0
-18 -25 0
18 28 0
-18 -28 0
18 29 0
-18 -29 0
18 31 0
-18 -31 0
18 32 0
-18 -32 0
18 34 0
-18 -34 0
18 35 0
-18 -35 0
18 36 0
-18 -36 0
18 38 0
-18 -38 0
19 23 0
-19 -23 0
19 24 0
-19 -24 0
19 25 0
-19 -25 0
19 26 0
-19 -26 0
19 29 0
-19 -29 0
19 30 0
-19 -30 0
19 31 0
-19 -31 0
19 32 0
-19 -32 0
19 33 0
-19 -33 0
19 34 0
-19 -34 0
19 37 0
-19 -37 0
19 38 0
-19 -38 0
19 39 0
-19 -39 0
19 40 0
-19 -40 0
20 21 0
-20 -21 0
20 22 0
-20 -22 0
20 23 0
-20 -23 0
20 25 0
-20 -25 0
20 28 0
-20 -28 0
20 29 0
-20 -29 0
20 30 0
-20 -30 0
20 31 0
-20 -31 0
20 32 0
-20 -32 0
20 34 0
-20 -34 0
20 35 0
-20 -35 0
20 37 0
-20 -37 0
20 38 0
-20 -38 0
20 39 0
-20 -39 0
20 40 0
-20 -40 0
21 22 0
-21 -22 0
21 23 0
-21 -23 0
21 24 0
-21 -24 0
21 30 0
-21 -30 0
21 31 0
-21 -31 0
21 32 0
-21 -32 0
21 34 0
-21 -34 0
21 36 0
-21 -36 0
21 37 0
-21 -37 0
21 39 0
-21 -39 0
21 40 0
-21 -40 0
22 23 0
-22 -23 0
22 25 0
-22 -25 0
22 26 0
-22 -26 0
22 27 0
-22 -27 0
22 28 0
-22 -28 0
22 30 0
-22 -30 0
22 31 0
-22 -31 0
22 33 0
-22 -33 0
22 34 0
-22 -34 0
22 37 0
-22 -37 0
22 38 0
-22 -38 0
22 40 0
-22 -40 0
23 25 0
-23 -25 0
23 27 0
-23 -27 0
23 29 0
-23 -29 0
23 34 0
-23 -34 0
23 35 0
-23 -35 0
23 36 0
-23 -36 0
23 37 0
-23 -37 0
23 38 0
-23 -38 0
24 27 0
-24 -27 0
24 30 0
-24 -30 0
24 31 0
-24 -31 0
24 33 0
-24 -33 0
24 34 0
-24 -34 0
24 35 0
-24 -35 0
24 37 0
-24 -37 0
24 39 0
-24 -39 0
25 26 0
-25 -26 0
25 27 0
-25 -27 0
25 28 0
-25 -28 0
25 29 0
-25 -29 0
25 31 0
-25 -31 0
25 35 0
-25 -35 0
25 36 0
-25 -36 0
25 37 0
-25 -37 0
25 39 0
-25 -39 0
25 40 0
-25 -40 0
26 27 0
-26 -27 0
26 29 0
-26 -29 0
26 30 0
-26 -30 0
26 31 0
-26 -31 0
26 32 0
-26 -32 0
26 33 0
-26 -33 0
26 35 0
-26 -35 0
26 36 0
-26 -36 0
26 39 0
-26 -39 0
26 40 0
-26 -40 0
27 28 0
-27 -28 0
27 32 0
-27 -32 0
27 33 0
-27 -33 0
27 34 0
-27 -34 0
27 35 0
-27 -35 0
27 36 0
-27 -36 0
27 37 0
-27 -37 0
27 38 0
-27 -38 0
27 40 0
-27 -40 0
28 29 0
-28 -29 0
28 30 0
-28 -30 0
28 32 0
-28 -32 0
28 33 0
-28 -33 0
28 34 0
-28 -34 0
28 35 0
-28 -35 0
28 37 0
-28 -37 0
28 38 0
-28 -38 0
28 39 0
-28 -39 0
28 40 0
-28 -40 0
29 31 0
-29 -31 0
29 32 0
-29 -32 0
29 34 0
-29 -34 0
29 38 0
-29 -38 0
29 39 0
-29 -39 0
29 40 0
-29 -40 0
30 31 0
-30 -31 0
30 32 0
-30 -32 0
30 33 0
-30 -33 0
30 35 0
-30 -35 0
30 36 0
-30 -36 0
30 38 0
-30 -38 0
30 39 0
-30 -39 0
30 40 0
-30 -40 0
31 32 0
-31 -32 0
31 34 0
-31 -34 0
31 36 0
-31 -36 0
31 37 0
-31 -37 0
31 38 0
-31 -38 0
31 39 0
-31 -39 0
31 40 0
-31 -40 0
32 33 0
-32 -33 0
32 35 0
-32 -35 0
32 37 0
-32 -37 0
32 38 0
-32 -38 0
33 34 0
-33 -34 0
33 36 0
-33 -36 0
33 38 0
-33 -38 0
33 39 0
-33 -39 0
33 40 0
-33 -40 0
34 35 0
-34 -35 0
34 36 0
-34 -36 0
34 38 0
-34 -38 0
34 40 0
-34 -40 0
35 37 0
-35 -37 0
35 40 0
-35 -40 0
36 37 0
-36 -37 0
36 38 0
-36 -38 0
36 40 0
-36 -40 0
37 38 0
-37 -38 0
37 39 0
-37 -39 0
37 40 0
-37 -40 0
38 39 0
-38 -39 0
