FourierSAT_Github_AIJ/res/fs_1core/brock800_2.clq.cnf.txt
o 213
o 210
